instances/pace16/unsolved/aes_32_3_keyfind_1.gaifman.gr
c Gaifman graph of CNF formula
c md5sum 278d646386a62d4f28f7fc390c5eab3e  sc14-app/aes_32_3_keyfind_1.cnf
p tw 708 2292
1 33
1 97
2 34
2 98
3 35
3 99
4 36
4 100
5 37
5 101
6 38
6 102
7 39
7 103
8 40
8 104
9 41
9 105
10 42
10 106
11 43
11 107
12 44
12 108
13 45
13 109
14 46
14 110
15 47
15 111
16 48
16 112
17 49
17 113
18 50
18 114
19 51
19 115
20 52
20 116
21 53
21 117
22 54
22 118
23 55
23 119
24 56
24 120
25 57
25 121
26 58
26 122
27 59
27 123
28 60
28 124
29 61
29 125
30 62
30 126
31 63
31 127
32 64
32 128
33 97
33 193
33 673
33 685
34 98
34 194
34 674
34 686
35 99
35 195
35 675
35 687
36 100
36 196
36 676
36 688
37 101
37 197
37 689
38 102
38 198
38 690
39 103
39 199
39 691
40 104
40 200
40 692
41 105
41 193
41 201
42 106
42 194
42 202
43 107
43 195
43 203
44 108
44 196
44 204
45 109
45 197
45 205
46 110
46 198
46 206
47 111
47 199
47 207
48 112
48 200
48 208
49 113
49 201
49 209
50 114
50 202
50 210
51 115
51 203
51 211
52 116
52 204
52 212
53 117
53 205
53 213
54 118
54 206
54 214
55 119
55 207
55 215
56 120
56 208
56 216
57 58
57 59
57 60
57 121
57 209
57 217
57 689
57 690
57 691
57 692
58 59
58 60
58 122
58 210
58 218
58 689
58 690
58 691
58 692
59 60
59 123
59 211
59 219
59 689
59 690
59 691
59 692
60 124
60 212
60 220
60 689
60 690
60 691
60 692
61 62
61 63
61 64
61 125
61 213
61 221
61 685
61 686
61 687
61 688
62 63
62 64
62 126
62 214
62 222
62 685
62 686
62 687
62 688
63 64
63 127
63 215
63 223
63 685
63 686
63 687
63 688
64 128
64 216
64 224
64 685
64 686
64 687
64 688
65 257
65 289
66 258
66 290
67 259
67 291
68 260
68 292
69 261
69 293
70 262
70 294
71 263
71 295
72 264
72 296
73 265
73 297
74 266
74 298
75 267
75 299
76 268
76 300
77 269
77 301
78 270
78 302
79 271
79 303
80 272
80 304
81 273
81 305
82 274
82 306
83 275
83 307
84 276
84 308
85 277
85 309
86 278
86 310
87 279
87 311
88 280
88 312
89 281
89 313
90 282
90 314
91 283
91 315
92 284
92 316
93 285
93 317
94 286
94 318
95 287
95 319
96 288
96 320
97 98
97 99
97 100
97 577
97 578
97 579
97 580
98 99
98 100
98 577
98 578
98 579
98 580
99 100
99 577
99 578
99 579
99 580
100 577
100 578
100 579
100 580
101 102
101 103
101 104
101 605
101 606
101 607
101 608
102 103
102 104
102 605
102 606
102 607
102 608
103 104
103 605
103 606
103 607
103 608
104 605
104 606
104 607
104 608
105 106
105 107
105 108
105 585
105 586
105 587
105 588
106 107
106 108
106 585
106 586
106 587
106 588
107 108
107 585
107 586
107 587
107 588
108 585
108 586
108 587
108 588
109 110
109 111
109 112
109 581
109 582
109 583
109 584
110 111
110 112
110 581
110 582
110 583
110 584
111 112
111 581
111 582
111 583
111 584
112 581
112 582
112 583
112 584
113 114
113 115
113 116
113 593
113 594
113 595
113 596
114 115
114 116
114 593
114 594
114 595
114 596
115 116
115 593
115 594
115 595
115 596
116 593
116 594
116 595
116 596
117 118
117 119
117 120
117 589
117 590
117 591
117 592
118 119
118 120
118 589
118 590
118 591
118 592
119 120
119 589
119 590
119 591
119 592
120 589
120 590
120 591
120 592
121 122
121 123
121 124
121 601
121 602
121 603
121 604
122 123
122 124
122 601
122 602
122 603
122 604
123 124
123 601
123 602
123 603
123 604
124 601
124 602
124 603
124 604
125 126
125 127
125 128
125 597
125 598
125 599
125 600
126 127
126 128
126 597
126 598
126 599
126 600
127 128
127 597
127 598
127 599
127 600
128 597
128 598
128 599
128 600
129 130
129 131
129 132
129 193
129 449
129 450
129 451
129 452
129 545
130 131
130 132
130 194
130 449
130 450
130 451
130 452
130 546
131 132
131 195
131 449
131 450
131 451
131 452
131 547
132 196
132 449
132 450
132 451
132 452
132 548
133 134
133 135
133 136
133 197
133 477
133 478
133 479
133 480
133 549
134 135
134 136
134 198
134 477
134 478
134 479
134 480
134 550
135 136
135 199
135 477
135 478
135 479
135 480
135 551
136 200
136 477
136 478
136 479
136 480
136 552
137 138
137 139
137 140
137 201
137 457
137 458
137 459
137 460
137 553
138 139
138 140
138 202
138 457
138 458
138 459
138 460
138 554
139 140
139 203
139 457
139 458
139 459
139 460
139 555
140 204
140 457
140 458
140 459
140 460
140 556
141 142
141 143
141 144
141 205
141 453
141 454
141 455
141 456
141 557
142 143
142 144
142 206
142 453
142 454
142 455
142 456
142 558
143 144
143 207
143 453
143 454
143 455
143 456
143 559
144 208
144 453
144 454
144 455
144 456
144 560
145 146
145 147
145 148
145 209
145 465
145 466
145 467
145 468
145 561
146 147
146 148
146 210
146 465
146 466
146 467
146 468
146 562
147 148
147 211
147 465
147 466
147 467
147 468
147 563
148 212
148 465
148 466
148 467
148 468
148 564
149 150
149 151
149 152
149 213
149 461
149 462
149 463
149 464
149 565
150 151
150 152
150 214
150 461
150 462
150 463
150 464
150 566
151 152
151 215
151 461
151 462
151 463
151 464
151 567
152 216
152 461
152 462
152 463
152 464
152 568
153 154
153 155
153 156
153 217
153 473
153 474
153 475
153 476
153 569
154 155
154 156
154 218
154 473
154 474
154 475
154 476
154 570
155 156
155 219
155 473
155 474
155 475
155 476
155 571
156 220
156 473
156 474
156 475
156 476
156 572
157 158
157 159
157 160
157 221
157 469
157 470
157 471
157 472
157 573
158 159
158 160
158 222
158 469
158 470
158 471
158 472
158 574
159 160
159 223
159 469
159 470
159 471
159 472
159 575
160 224
160 469
160 470
160 471
160 472
160 576
161 162
161 163
161 164
161 225
161 321
161 322
161 323
161 324
161 417
162 163
162 164
162 226
162 321
162 322
162 323
162 324
162 418
163 164
163 227
163 321
163 322
163 323
163 324
163 419
164 228
164 321
164 322
164 323
164 324
164 420
165 166
165 167
165 168
165 229
165 349
165 350
165 351
165 352
165 421
166 167
166 168
166 230
166 349
166 350
166 351
166 352
166 422
167 168
167 231
167 349
167 350
167 351
167 352
167 423
168 232
168 349
168 350
168 351
168 352
168 424
169 170
169 171
169 172
169 233
169 329
169 330
169 331
169 332
169 425
170 171
170 172
170 234
170 329
170 330
170 331
170 332
170 426
171 172
171 235
171 329
171 330
171 331
171 332
171 427
172 236
172 329
172 330
172 331
172 332
172 428
173 174
173 175
173 176
173 237
173 325
173 326
173 327
173 328
173 429
174 175
174 176
174 238
174 325
174 326
174 327
174 328
174 430
175 176
175 239
175 325
175 326
175 327
175 328
175 431
176 240
176 325
176 326
176 327
176 328
176 432
177 178
177 179
177 180
177 241
177 337
177 338
177 339
177 340
177 433
178 179
178 180
178 242
178 337
178 338
178 339
178 340
178 434
179 180
179 243
179 337
179 338
179 339
179 340
179 435
180 244
180 337
180 338
180 339
180 340
180 436
181 182
181 183
181 184
181 245
181 333
181 334
181 335
181 336
181 437
182 183
182 184
182 246
182 333
182 334
182 335
182 336
182 438
183 184
183 247
183 333
183 334
183 335
183 336
183 439
184 248
184 333
184 334
184 335
184 336
184 440
185 186
185 187
185 188
185 249
185 345
185 346
185 347
185 348
185 441
186 187
186 188
186 250
186 345
186 346
186 347
186 348
186 442
187 188
187 251
187 345
187 346
187 347
187 348
187 443
188 252
188 345
188 346
188 347
188 348
188 444
189 190
189 191
189 192
189 253
189 341
189 342
189 343
189 344
189 445
190 191
190 192
190 254
190 341
190 342
190 343
190 344
190 446
191 192
191 255
191 341
191 342
191 343
191 344
191 447
192 256
192 341
192 342
192 343
192 344
192 448
193 201
193 225
193 545
193 673
193 677
193 685
193 693
194 202
194 226
194 546
194 674
194 678
194 686
194 694
195 203
195 227
195 547
195 675
195 679
195 687
195 695
196 204
196 228
196 548
196 676
196 680
196 688
196 696
197 205
197 229
197 549
197 689
197 697
198 206
198 230
198 550
198 690
198 698
199 207
199 231
199 551
199 691
199 699
200 208
200 232
200 552
200 692
200 700
201 209
201 225
201 233
201 553
202 210
202 226
202 234
202 554
203 211
203 227
203 235
203 555
204 212
204 228
204 236
204 556
205 213
205 229
205 237
205 557
206 214
206 230
206 238
206 558
207 215
207 231
207 239
207 559
208 216
208 232
208 240
208 560
209 217
209 233
209 241
209 561
210 218
210 234
210 242
210 562
211 219
211 235
211 243
211 563
212 220
212 236
212 244
212 564
213 221
213 237
213 245
213 565
214 222
214 238
214 246
214 566
215 223
215 239
215 247
215 567
216 224
216 240
216 248
216 568
217 218
217 219
217 220
217 241
217 249
217 569
217 697
217 698
217 699
217 700
218 219
218 220
218 242
218 250
218 570
218 697
218 698
218 699
218 700
219 220
219 243
219 251
219 571
219 697
219 698
219 699
219 700
220 244
220 252
220 572
220 697
220 698
220 699
220 700
221 222
221 223
221 224
221 245
221 253
221 573
221 693
221 694
221 695
221 696
222 223
222 224
222 246
222 254
222 574
222 693
222 694
222 695
222 696
223 224
223 247
223 255
223 575
223 693
223 694
223 695
223 696
224 248
224 256
224 576
224 693
224 694
224 695
224 696
225 233
225 257
225 417
225 677
225 681
225 693
225 701
226 234
226 258
226 418
226 678
226 682
226 694
226 702
227 235
227 259
227 419
227 679
227 683
227 695
227 703
228 236
228 260
228 420
228 680
228 684
228 696
228 704
229 237
229 261
229 421
229 697
229 705
230 238
230 262
230 422
230 698
230 706
231 239
231 263
231 423
231 699
231 707
232 240
232 264
232 424
232 700
232 708
233 241
233 257
233 265
233 425
234 242
234 258
234 266
234 426
235 243
235 259
235 267
235 427
236 244
236 260
236 268
236 428
237 245
237 261
237 269
237 429
238 246
238 262
238 270
238 430
239 247
239 263
239 271
239 431
240 248
240 264
240 272
240 432
241 249
241 265
241 273
241 433
242 250
242 266
242 274
242 434
243 251
243 267
243 275
243 435
244 252
244 268
244 276
244 436
245 253
245 269
245 277
245 437
246 254
246 270
246 278
246 438
247 255
247 271
247 279
247 439
248 256
248 272
248 280
248 440
249 250
249 251
249 252
249 273
249 281
249 441
249 705
249 706
249 707
249 708
250 251
250 252
250 274
250 282
250 442
250 705
250 706
250 707
250 708
251 252
251 275
251 283
251 443
251 705
251 706
251 707
251 708
252 276
252 284
252 444
252 705
252 706
252 707
252 708
253 254
253 255
253 256
253 277
253 285
253 445
253 701
253 702
253 703
253 704
254 255
254 256
254 278
254 286
254 446
254 701
254 702
254 703
254 704
255 256
255 279
255 287
255 447
255 701
255 702
255 703
255 704
256 280
256 288
256 448
256 701
256 702
256 703
256 704
257 265
257 289
257 681
257 701
258 266
258 290
258 682
258 702
259 267
259 291
259 683
259 703
260 268
260 292
260 684
260 704
261 269
261 293
261 705
262 270
262 294
262 706
263 271
263 295
263 707
264 272
264 296
264 708
265 273
265 297
266 274
266 298
267 275
267 299
268 276
268 300
269 277
269 301
270 278
270 302
271 279
271 303
272 280
272 304
273 281
273 305
274 282
274 306
275 283
275 307
276 284
276 308
277 285
277 309
278 286
278 310
279 287
279 311
280 288
280 312
281 313
282 314
283 315
284 316
285 317
286 318
287 319
288 320
289 361
289 365
290 362
290 366
291 363
291 367
292 364
292 368
293 353
293 357
294 354
294 358
295 355
295 359
296 356
296 360
297 377
297 381
298 378
298 382
299 379
299 383
300 380
300 384
301 369
301 373
302 370
302 374
303 371
303 375
304 372
304 376
305 393
305 397
306 394
306 398
307 395
307 399
308 396
308 400
309 385
309 389
310 386
310 390
311 387
311 391
312 388
312 392
313 409
313 413
314 410
314 414
315 411
315 415
316 412
316 416
317 401
317 405
318 402
318 406
319 403
319 407
320 404
320 408
321 322
321 323
321 324
321 359
321 360
321 365
321 366
321 368
322 323
322 324
322 357
322 365
322 366
323 324
323 358
323 365
323 366
323 367
323 368
324 359
324 360
324 368
325 326
325 327
325 328
325 353
325 354
325 356
325 363
325 364
326 327
326 328
326 353
326 354
326 361
327 328
327 353
327 354
327 355
327 356
327 362
328 356
328 363
328 364
329 330
329 331
329 332
329 375
329 376
329 381
329 382
329 384
330 331
330 332
330 373
330 381
330 382
331 332
331 374
331 381
331 382
331 383
331 384
332 375
332 376
332 384
333 334
333 335
333 336
333 369
333 370
333 372
333 379
333 380
334 335
334 336
334 369
334 370
334 377
335 336
335 369
335 370
335 371
335 372
335 378
336 372
336 379
336 380
337 338
337 339
337 340
337 391
337 392
337 397
337 398
337 400
338 339
338 340
338 389
338 397
338 398
339 340
339 390
339 397
339 398
339 399
339 400
340 391
340 392
340 400
341 342
341 343
341 344
341 385
341 386
341 388
341 395
341 396
342 343
342 344
342 385
342 386
342 393
343 344
343 385
343 386
343 387
343 388
343 394
344 388
344 395
344 396
345 346
345 347
345 348
345 407
345 408
345 413
345 414
345 416
346 347
346 348
346 405
346 413
346 414
347 348
347 406
347 413
347 414
347 415
347 416
348 407
348 408
348 416
349 350
349 351
349 352
349 401
349 402
349 404
349 411
349 412
350 351
350 352
350 401
350 402
350 409
351 352
351 401
351 402
351 403
351 404
351 410
352 404
352 411
352 412
353 354
353 357
354 358
355 356
355 359
356 360
359 360
361 365
362 366
363 364
363 367
364 368
365 366
367 368
369 370
369 373
370 374
371 372
371 375
372 376
375 376
377 381
378 382
379 380
379 383
380 384
381 382
383 384
385 386
385 389
386 390
387 388
387 391
388 392
391 392
393 397
394 398
395 396
395 399
396 400
397 398
399 400
401 402
401 405
402 406
403 404
403 407
404 408
407 408
409 413
410 414
411 412
411 415
412 416
413 414
415 416
417 489
417 493
418 490
418 494
419 491
419 495
420 492
420 496
421 481
421 485
422 482
422 486
423 483
423 487
424 484
424 488
425 505
425 509
426 506
426 510
427 507
427 511
428 508
428 512
429 497
429 501
430 498
430 502
431 499
431 503
432 500
432 504
433 521
433 525
434 522
434 526
435 523
435 527
436 524
436 528
437 513
437 517
438 514
438 518
439 515
439 519
440 516
440 520
441 537
441 541
442 538
442 542
443 539
443 543
444 540
444 544
445 529
445 533
446 530
446 534
447 531
447 535
448 532
448 536
449 450
449 451
449 452
449 487
449 488
449 493
449 494
449 496
450 451
450 452
450 485
450 493
450 494
451 452
451 486
451 493
451 494
451 495
451 496
452 487
452 488
452 496
453 454
453 455
453 456
453 481
453 482
453 484
453 491
453 492
454 455
454 456
454 481
454 482
454 489
455 456
455 481
455 482
455 483
455 484
455 490
456 484
456 491
456 492
457 458
457 459
457 460
457 503
457 504
457 509
457 510
457 512
458 459
458 460
458 501
458 509
458 510
459 460
459 502
459 509
459 510
459 511
459 512
460 503
460 504
460 512
461 462
461 463
461 464
461 497
461 498
461 500
461 507
461 508
462 463
462 464
462 497
462 498
462 505
463 464
463 497
463 498
463 499
463 500
463 506
464 500
464 507
464 508
465 466
465 467
465 468
465 519
465 520
465 525
465 526
465 528
466 467
466 468
466 517
466 525
466 526
467 468
467 518
467 525
467 526
467 527
467 528
468 519
468 520
468 528
469 470
469 471
469 472
469 513
469 514
469 516
469 523
469 524
470 471
470 472
470 513
470 514
470 521
471 472
471 513
471 514
471 515
471 516
471 522
472 516
472 523
472 524
473 474
473 475
473 476
473 535
473 536
473 541
473 542
473 544
474 475
474 476
474 533
474 541
474 542
475 476
475 534
475 541
475 542
475 543
475 544
476 535
476 536
476 544
477 478
477 479
477 480
477 529
477 530
477 532
477 539
477 540
478 479
478 480
478 529
478 530
478 537
479 480
479 529
479 530
479 531
479 532
479 538
480 532
480 539
480 540
481 482
481 485
482 486
483 484
483 487
484 488
487 488
489 493
490 494
491 492
491 495
492 496
493 494
495 496
497 498
497 501
498 502
499 500
499 503
500 504
503 504
505 509
506 510
507 508
507 511
508 512
509 510
511 512
513 514
513 517
514 518
515 516
515 519
516 520
519 520
521 525
522 526
523 524
523 527
524 528
525 526
527 528
529 530
529 533
530 534
531 532
531 535
532 536
535 536
537 541
538 542
539 540
539 543
540 544
541 542
543 544
545 617
545 621
546 618
546 622
547 619
547 623
548 620
548 624
549 609
549 613
550 610
550 614
551 611
551 615
552 612
552 616
553 633
553 637
554 634
554 638
555 635
555 639
556 636
556 640
557 625
557 629
558 626
558 630
559 627
559 631
560 628
560 632
561 649
561 653
562 650
562 654
563 651
563 655
564 652
564 656
565 641
565 645
566 642
566 646
567 643
567 647
568 644
568 648
569 665
569 669
570 666
570 670
571 667
571 671
572 668
572 672
573 657
573 661
574 658
574 662
575 659
575 663
576 660
576 664
577 578
577 579
577 580
577 615
577 616
577 621
577 622
577 624
578 579
578 580
578 613
578 621
578 622
579 580
579 614
579 621
579 622
579 623
579 624
580 615
580 616
580 624
581 582
581 583
581 584
581 609
581 610
581 612
581 619
581 620
582 583
582 584
582 609
582 610
582 617
583 584
583 609
583 610
583 611
583 612
583 618
584 612
584 619
584 620
585 586
585 587
585 588
585 631
585 632
585 637
585 638
585 640
586 587
586 588
586 629
586 637
586 638
587 588
587 630
587 637
587 638
587 639
587 640
588 631
588 632
588 640
589 590
589 591
589 592
589 625
589 626
589 628
589 635
589 636
590 591
590 592
590 625
590 626
590 633
591 592
591 625
591 626
591 627
591 628
591 634
592 628
592 635
592 636
593 594
593 595
593 596
593 647
593 648
593 653
593 654
593 656
594 595
594 596
594 645
594 653
594 654
595 596
595 646
595 653
595 654
595 655
595 656
596 647
596 648
596 656
597 598
597 599
597 600
597 641
597 642
597 644
597 651
597 652
598 599
598 600
598 641
598 642
598 649
599 600
599 641
599 642
599 643
599 644
599 650
600 644
600 651
600 652
601 602
601 603
601 604
601 663
601 664
601 669
601 670
601 672
602 603
602 604
602 661
602 669
602 670
603 604
603 662
603 669
603 670
603 671
603 672
604 663
604 664
604 672
605 606
605 607
605 608
605 657
605 658
605 660
605 667
605 668
606 607
606 608
606 657
606 658
606 665
607 608
607 657
607 658
607 659
607 660
607 666
608 660
608 667
608 668
609 610
609 613
610 614
611 612
611 615
612 616
615 616
617 621
618 622
619 620
619 623
620 624
621 622
623 624
625 626
625 629
626 630
627 628
627 631
628 632
631 632
633 637
634 638
635 636
635 639
636 640
637 638
639 640
641 642
641 645
642 646
643 644
643 647
644 648
647 648
649 653
650 654
651 652
651 655
652 656
653 654
655 656
657 658
657 661
658 662
659 660
659 663
660 664
663 664
665 669
666 670
667 668
667 671
668 672
669 670
671 672
673 685
674 686
675 687
676 688
677 693
678 694
679 695
680 696
681 701
682 702
683 703
684 704
685 686
685 687
685 688
686 687
686 688
687 688
689 690
689 691
689 692
690 691
690 692
691 692
693 694
693 695
693 696
694 695
694 696
695 696
697 698
697 699
697 700
698 699
698 700
699 700
701 702
701 703
701 704
702 703
702 704
703 704
705 706
705 707
705 708
706 707
706 708
707 708
